Crypto/instances/samples/hf_n32/hf_n32_cnf06.sol
c DPLL-like Solver for max-min SAT
f file hf_n32_cnf06.cnf
p cnf 32 220
s max  220 8 7 -5 -6 -22 -12 9 11 -27 10 -18 -4 -2 -29 -3 -15 14 -16 13 -28 -30 -32 -20 1 -25 -26 -17 -31 -24 -19 -23 -21
s min  192 -10 -19 11 12 13 16 -20 -15 -21 -14 28 -24 9 27 17 -32 -31 -25 -18 8 -22 -30 -23 -26 -29 1 2 3 -4 5 6 7